c "568550.clq"
p edge 195 2864
e 1 17
e 1 18
e 1 19
e 1 21
e 1 23
e 1 24
e 1 27
e 1 31
e 1 32
e 1 35
e 1 37
e 1 38
e 1 45
e 1 49
e 1 56
e 1 59
e 1 62
e 1 63
e 1 65
e 1 74
e 1 78
e 1 85
e 1 87
e 1 88
e 1 91
e 1 107
e 1 119
e 1 120
e 1 127
e 1 143
e 1 150
e 1 155
e 1 163
e 1 164
e 1 172
e 1 174
e 1 181
e 1 193
e 2 17
e 2 18
e 2 19
e 2 20
e 2 21
e 2 28
e 2 30
e 2 37
e 2 51
e 2 52
e 2 54
e 2 57
e 2 60
e 2 62
e 2 64
e 2 67
e 2 70
e 2 77
e 2 78
e 2 80
e 2 81
e 2 83
e 2 93
e 2 109
e 2 115
e 2 136
e 2 164
e 2 174
e 2 180
e 3 17
e 3 18
e 3 19
e 3 20
e 3 21
e 3 22
e 3 23
e 3 25
e 3 27
e 3 28
e 3 29
e 3 33
e 3 37
e 3 47
e 3 48
e 3 49
e 3 53
e 3 55
e 3 61
e 3 63
e 3 66
e 3 67
e 3 72
e 3 74
e 3 82
e 3 85
e 3 88
e 3 95
e 3 97
e 3 103
e 3 104
e 3 106
e 3 108
e 3 110
e 3 116
e 3 117
e 3 124
e 3 125
e 3 127
e 3 128
e 3 131
e 3 139
e 3 158
e 3 188
e 3 190
e 3 192
e 4 17
e 4 18
e 4 19
e 4 20
e 4 21
e 4 22
e 4 24
e 4 28
e 4 29
e 4 34
e 4 35
e 4 36
e 4 38
e 4 41
e 4 44
e 4 46
e 4 47
e 4 48
e 4 50
e 4 51
e 4 53
e 4 56
e 4 58
e 4 68
e 4 78
e 4 86
e 4 91
e 4 95
e 4 97
e 4 101
e 4 106
e 4 107
e 4 109
e 4 112
e 4 115
e 4 124
e 4 129
e 4 130
e 4 133
e 4 136
e 4 137
e 4 146
e 4 152
e 4 156
e 4 160
e 4 166
e 4 171
e 4 175
e 4 182
e 4 183
e 5 17
e 5 18
e 5 19
e 5 20
e 5 21
e 5 22
e 5 25
e 5 26
e 5 27
e 5 30
e 5 32
e 5 33
e 5 35
e 5 36
e 5 40
e 5 41
e 5 51
e 5 53
e 5 54
e 5 67
e 5 73
e 5 74
e 5 77
e 5 79
e 5 90
e 5 92
e 5 96
e 5 112
e 5 113
e 5 125
e 5 144
e 5 151
e 5 154
e 5 160
e 5 181
e 6 17
e 6 18
e 6 19
e 6 20
e 6 21
e 6 22
e 6 23
e 6 24
e 6 25
e 6 26
e 6 27
e 6 28
e 6 29
e 6 30
e 6 31
e 6 32
e 6 35
e 6 39
e 6 46
e 6 53
e 6 65
e 6 66
e 6 68
e 6 70
e 6 75
e 6 81
e 6 83
e 6 85
e 6 86
e 6 88
e 6 93
e 6 95
e 6 100
e 6 101
e 6 104
e 6 111
e 6 126
e 6 136
e 6 146
e 6 153
e 6 163
e 6 166
e 6 167
e 6 168
e 6 169
e 6 170
e 6 171
e 6 174
e 6 176
e 6 179
e 6 183
e 7 17
e 7 18
e 7 19
e 7 20
e 7 23
e 7 24
e 7 25
e 7 26
e 7 28
e 7 29
e 7 32
e 7 34
e 7 38
e 7 42
e 7 45
e 7 47
e 7 51
e 7 52
e 7 53
e 7 55
e 7 56
e 7 58
e 7 60
e 7 62
e 7 68
e 7 69
e 7 75
e 7 76
e 7 77
e 7 88
e 7 92
e 7 93
e 7 96
e 7 98
e 7 128
e 7 129
e 7 145
e 7 146
e 7 156
e 7 163
e 7 167
e 7 172
e 7 191
e 8 17
e 8 18
e 8 23
e 8 27
e 8 28
e 8 32
e 8 36
e 8 37
e 8 40
e 8 49
e 8 64
e 8 73
e 8 78
e 8 86
e 8 122
e 8 165
e 8 167
e 8 179
e 9 17
e 9 18
e 9 19
e 9 22
e 9 23
e 9 29
e 9 30
e 9 31
e 9 34
e 9 36
e 9 40
e 9 41
e 9 45
e 9 47
e 9 48
e 9 49
e 9 52
e 9 58
e 9 71
e 9 74
e 9 80
e 9 89
e 9 94
e 9 108
e 9 112
e 9 114
e 9 129
e 9 147
e 9 149
e 9 154
e 9 189
e 9 192
e 10 17
e 10 18
e 10 19
e 10 20
e 10 21
e 10 22
e 10 23
e 10 26
e 10 29
e 10 31
e 10 34
e 10 39
e 10 41
e 10 50
e 10 55
e 10 57
e 10 63
e 10 67
e 10 68
e 10 72
e 10 76
e 10 79
e 10 89
e 10 90
e 10 92
e 10 108
e 10 115
e 10 131
e 10 165
e 10 171
e 10 181
e 10 183
e 10 195
e 11 17
e 11 18
e 11 19
e 11 20
e 11 21
e 11 22
e 11 24
e 11 25
e 11 26
e 11 27
e 11 28
e 11 29
e 11 30
e 11 31
e 11 33
e 11 34
e 11 35
e 11 36
e 11 43
e 11 47
e 11 49
e 11 53
e 11 56
e 11 62
e 11 64
e 11 65
e 11 69
e 11 79
e 11 82
e 11 84
e 11 99
e 11 107
e 11 112
e 11 113
e 11 134
e 11 138
e 11 155
e 11 162
e 11 169
e 11 177
e 11 191
e 12 17
e 12 18
e 12 19
e 12 20
e 12 21
e 12 24
e 12 27
e 12 35
e 12 42
e 12 44
e 12 58
e 12 70
e 12 90
e 12 94
e 12 102
e 12 108
e 12 117
e 12 123
e 12 131
e 12 138
e 12 142
e 12 152
e 12 154
e 12 157
e 12 159
e 12 184
e 13 17
e 13 18
e 13 19
e 13 20
e 13 21
e 13 22
e 13 23
e 13 24
e 13 25
e 13 26
e 13 27
e 13 31
e 13 33
e 13 34
e 13 35
e 13 39
e 13 43
e 13 46
e 13 48
e 13 50
e 13 54
e 13 55
e 13 59
e 13 63
e 13 66
e 13 71
e 13 74
e 13 76
e 13 85
e 13 86
e 13 89
e 13 90
e 13 98
e 13 102
e 13 109
e 13 116
e 13 121
e 13 125
e 13 129
e 13 134
e 13 135
e 13 137
e 13 138
e 13 146
e 13 147
e 13 167
e 13 171
e 13 172
e 14 17
e 14 18
e 14 20
e 14 21
e 14 22
e 14 24
e 14 25
e 14 32
e 14 36
e 14 37
e 14 40
e 14 47
e 14 62
e 14 71
e 14 72
e 14 76
e 14 81
e 14 104
e 14 106
e 14 122
e 14 129
e 14 143
e 14 144
e 14 155
e 14 157
e 14 172
e 14 189
e 15 17
e 15 19
e 15 20
e 15 22
e 15 23
e 15 28
e 15 34
e 15 41
e 15 47
e 15 50
e 15 54
e 15 63
e 15 65
e 15 76
e 15 92
e 15 95
e 15 119
e 15 125
e 15 147
e 15 161
e 16 17
e 16 18
e 16 19
e 16 20
e 16 21
e 16 22
e 16 23
e 16 24
e 16 25
e 16 26
e 16 28
e 16 29
e 16 30
e 16 32
e 16 34
e 16 37
e 16 38
e 16 39
e 16 41
e 16 42
e 16 43
e 16 46
e 16 52
e 16 65
e 16 69
e 16 86
e 16 91
e 16 99
e 16 104
e 16 105
e 16 111
e 16 116
e 16 124
e 16 126
e 16 128
e 16 132
e 16 135
e 16 154
e 16 158
e 16 159
e 16 173
e 16 179
e 16 185
e 16 186
e 16 187
e 16 192
e 17 18
e 17 19
e 17 20
e 17 21
e 17 22
e 17 23
e 17 24
e 17 25
e 17 26
e 17 27
e 17 29
e 17 30
e 17 32
e 17 33
e 17 34
e 17 35
e 17 38
e 17 39
e 17 41
e 17 42
e 17 43
e 17 45
e 17 46
e 17 47
e 17 48
e 17 50
e 17 51
e 17 52
e 17 53
e 17 54
e 17 57
e 17 58
e 17 59
e 17 60
e 17 61
e 17 62
e 17 65
e 17 66
e 17 70
e 17 71
e 17 72
e 17 78
e 17 79
e 17 80
e 17 83
e 17 86
e 17 91
e 17 92
e 17 93
e 17 96
e 17 99
e 17 101
e 17 102
e 17 103
e 17 104
e 17 107
e 17 108
e 17 109
e 17 110
e 17 113
e 17 117
e 17 118
e 17 119
e 17 122
e 17 130
e 17 135
e 17 140
e 17 141
e 17 142
e 17 147
e 17 149
e 17 150
e 17 151
e 17 153
e 17 159
e 17 160
e 17 162
e 17 165
e 17 167
e 17 168
e 17 170
e 17 180
e 17 184
e 17 187
e 17 188
e 17 190
e 17 191
e 17 193
e 18 19
e 18 20
e 18 21
e 18 22
e 18 23
e 18 24
e 18 25
e 18 26
e 18 27
e 18 29
e 18 30
e 18 31
e 18 32
e 18 33
e 18 34
e 18 35
e 18 37
e 18 38
e 18 39
e 18 41
e 18 43
e 18 44
e 18 47
e 18 49
e 18 50
e 18 51
e 18 53
e 18 55
e 18 56
e 18 59
e 18 61
e 18 62
e 18 65
e 18 70
e 18 73
e 18 74
e 18 76
e 18 80
e 18 81
e 18 83
e 18 86
e 18 87
e 18 88
e 18 91
e 18 94
e 18 98
e 18 100
e 18 102
e 18 107
e 18 113
e 18 114
e 18 115
e 18 118
e 18 121
e 18 125
e 18 129
e 18 131
e 18 133
e 18 136
e 18 137
e 18 139
e 18 140
e 18 144
e 18 148
e 18 149
e 18 151
e 18 158
e 18 164
e 18 176
e 18 177
e 18 183
e 18 184
e 18 185
e 18 186
e 18 188
e 18 189
e 18 192
e 18 195
e 19 20
e 19 21
e 19 22
e 19 23
e 19 24
e 19 25
e 19 26
e 19 29
e 19 31
e 19 32
e 19 34
e 19 35
e 19 36
e 19 37
e 19 38
e 19 39
e 19 40
e 19 42
e 19 45
e 19 46
e 19 47
e 19 48
e 19 49
e 19 51
e 19 54
e 19 55
e 19 56
e 19 58
e 19 67
e 19 69
e 19 72
e 19 75
e 19 77
e 19 78
e 19 79
e 19 81
e 19 82
e 19 83
e 19 85
e 19 88
e 19 90
e 19 91
e 19 93
e 19 94
e 19 99
e 19 107
e 19 108
e 19 110
e 19 111
e 19 113
e 19 114
e 19 117
e 19 120
e 19 123
e 19 125
e 19 126
e 19 130
e 19 132
e 19 138
e 19 139
e 19 141
e 19 143
e 19 145
e 19 149
e 19 150
e 19 154
e 19 156
e 19 160
e 19 162
e 19 165
e 19 166
e 19 169
e 19 171
e 19 184
e 19 189
e 19 192
e 20 21
e 20 22
e 20 23
e 20 24
e 20 25
e 20 26
e 20 27
e 20 28
e 20 29
e 20 30
e 20 31
e 20 32
e 20 33
e 20 34
e 20 36
e 20 37
e 20 38
e 20 39
e 20 40
e 20 41
e 20 42
e 20 43
e 20 44
e 20 48
e 20 50
e 20 52
e 20 53
e 20 56
e 20 57
e 20 59
e 20 62
e 20 65
e 20 68
e 20 71
e 20 72
e 20 73
e 20 74
e 20 75
e 20 81
e 20 82
e 20 84
e 20 87
e 20 88
e 20 90
e 20 91
e 20 92
e 20 94
e 20 96
e 20 106
e 20 111
e 20 114
e 20 118
e 20 119
e 20 125
e 20 134
e 20 140
e 20 145
e 20 152
e 20 165
e 20 167
e 20 173
e 20 175
e 20 179
e 20 181
e 20 182
e 20 190
e 21 22
e 21 23
e 21 24
e 21 25
e 21 26
e 21 27
e 21 28
e 21 30
e 21 31
e 21 32
e 21 33
e 21 34
e 21 36
e 21 37
e 21 39
e 21 42
e 21 43
e 21 44
e 21 50
e 21 51
e 21 52
e 21 53
e 21 54
e 21 55
e 21 57
e 21 59
e 21 60
e 21 61
e 21 67
e 21 72
e 21 75
e 21 79
e 21 80
e 21 82
e 21 84
e 21 86
e 21 90
e 21 96
e 21 97
e 21 101
e 21 104
e 21 105
e 21 106
e 21 110
e 21 112
e 21 115
e 21 116
e 21 117
e 21 128
e 21 132
e 21 135
e 21 139
e 21 142
e 21 143
e 21 147
e 21 149
e 21 152
e 21 169
e 21 170
e 21 173
e 21 175
e 21 182
e 21 184
e 21 185
e 22 23
e 22 24
e 22 25
e 22 26
e 22 27
e 22 28
e 22 29
e 22 30
e 22 31
e 22 32
e 22 33
e 22 35
e 22 36
e 22 38
e 22 45
e 22 46
e 22 49
e 22 51
e 22 54
e 22 56
e 22 61
e 22 63
e 22 64
e 22 66
e 22 68
e 22 69
e 22 70
e 22 71
e 22 73
e 22 75
e 22 77
e 22 78
e 22 84
e 22 85
e 22 86
e 22 87
e 22 88
e 22 93
e 22 95
e 22 96
e 22 100
e 22 104
e 22 106
e 22 123
e 22 128
e 22 129
e 22 139
e 22 140
e 22 141
e 22 144
e 22 146
e 22 149
e 22 152
e 22 153
e 22 154
e 22 172
e 22 173
e 22 175
e 22 183
e 22 186
e 23 24
e 23 25
e 23 26
e 23 27
e 23 28
e 23 29
e 23 30
e 23 31
e 23 32
e 23 33
e 23 35
e 23 38
e 23 39
e 23 40
e 23 43
e 23 44
e 23 50
e 23 52
e 23 54
e 23 56
e 23 58
e 23 59
e 23 60
e 23 61
e 23 62
e 23 63
e 23 64
e 23 68
e 23 69
e 23 82
e 23 92
e 23 97
e 23 100
e 23 106
e 23 114
e 23 122
e 23 123
e 23 124
e 23 126
e 23 128
e 23 132
e 23 133
e 23 134
e 23 138
e 23 143
e 23 148
e 23 158
e 23 164
e 23 168
e 23 174
e 23 177
e 23 178
e 23 193
e 23 195
e 24 25
e 24 26
e 24 28
e 24 29
e 24 30
e 24 31
e 24 34
e 24 36
e 24 38
e 24 39
e 24 40
e 24 41
e 24 42
e 24 44
e 24 45
e 24 46
e 24 48
e 24 49
e 24 50
e 24 53
e 24 55
e 24 58
e 24 59
e 24 60
e 24 61
e 24 63
e 24 69
e 24 71
e 24 79
e 24 82
e 24 87
e 24 88
e 24 89
e 24 90
e 24 93
e 24 104
e 24 105
e 24 106
e 24 108
e 24 113
e 24 115
e 24 117
e 24 121
e 24 127
e 24 128
e 24 129
e 24 137
e 24 141
e 24 147
e 24 155
e 24 165
e 24 167
e 24 170
e 24 181
e 24 187
e 25 26
e 25 27
e 25 28
e 25 29
e 25 30
e 25 31
e 25 32
e 25 34
e 25 35
e 25 37
e 25 40
e 25 42
e 25 43
e 25 44
e 25 45
e 25 51
e 25 52
e 25 56
e 25 58
e 25 60
e 25 63
e 25 64
e 25 66
e 25 68
e 25 74
e 25 75
e 25 77
e 25 80
e 25 81
e 25 85
e 25 91
e 25 95
e 25 96
e 25 101
e 25 107
e 25 110
e 25 117
e 25 118
e 25 119
e 25 130
e 25 134
e 25 137
e 25 152
e 25 159
e 25 160
e 25 168
e 25 169
e 25 171
e 25 173
e 25 176
e 25 181
e 25 182
e 25 185
e 25 188
e 25 192
e 26 27
e 26 28
e 26 30
e 26 31
e 26 33
e 26 36
e 26 38
e 26 45
e 26 46
e 26 49
e 26 56
e 26 57
e 26 58
e 26 60
e 26 61
e 26 64
e 26 65
e 26 66
e 26 69
e 26 76
e 26 78
e 26 89
e 26 92
e 26 96
e 26 101
e 26 102
e 26 114
e 26 120
e 26 151
e 27 33
e 27 36
e 27 37
e 27 42
e 27 46
e 27 50
e 27 53
e 27 56
e 27 57
e 27 60
e 27 64
e 27 67
e 27 73
e 27 75
e 27 78
e 27 79
e 27 81
e 27 84
e 27 89
e 27 92
e 27 96
e 27 101
e 27 103
e 27 105
e 27 109
e 27 110
e 27 111
e 27 112
e 27 114
e 27 118
e 27 119
e 27 120
e 27 124
e 27 127
e 27 129
e 27 140
e 27 142
e 27 144
e 27 148
e 27 149
e 27 151
e 27 163
e 27 165
e 27 166
e 27 171
e 27 173
e 27 176
e 27 179
e 27 185
e 27 187
e 27 194
e 27 195
e 28 33
e 28 36
e 28 38
e 28 43
e 28 48
e 28 50
e 28 52
e 28 57
e 28 64
e 28 67
e 28 69
e 28 76
e 28 82
e 28 93
e 28 103
e 28 105
e 28 110
e 28 115
e 28 118
e 28 120
e 28 124
e 28 127
e 28 140
e 28 150
e 28 151
e 28 156
e 28 160
e 28 175
e 28 181
e 28 188
e 28 190
e 29 30
e 29 33
e 29 34
e 29 36
e 29 37
e 29 39
e 29 41
e 29 45
e 29 46
e 29 52
e 29 53
e 29 59
e 29 60
e 29 63
e 29 69
e 29 72
e 29 73
e 29 79
e 29 88
e 29 92
e 29 100
e 29 102
e 29 105
e 29 107
e 29 109
e 29 116
e 29 118
e 29 128
e 29 131
e 29 139
e 29 150
e 29 159
e 29 175
e 29 179
e 29 183
e 30 31
e 30 32
e 30 35
e 30 37
e 30 40
e 30 41
e 30 42
e 30 44
e 30 45
e 30 47
e 30 48
e 30 49
e 30 58
e 30 62
e 30 63
e 30 70
e 30 72
e 30 78
e 30 80
e 30 81
e 30 82
e 30 83
e 30 89
e 30 98
e 30 101
e 30 103
e 30 104
e 30 110
e 30 113
e 30 120
e 30 121
e 30 123
e 30 124
e 30 125
e 30 126
e 30 129
e 30 140
e 30 141
e 30 142
e 30 146
e 30 157
e 30 158
e 30 162
e 30 164
e 30 167
e 30 179
e 30 186
e 30 195
e 31 33
e 31 35
e 31 40
e 31 41
e 31 42
e 31 43
e 31 44
e 31 46
e 31 48
e 31 49
e 31 50
e 31 53
e 31 56
e 31 57
e 31 60
e 31 61
e 31 64
e 31 65
e 31 66
e 31 70
e 31 73
e 31 79
e 31 81
e 31 83
e 31 84
e 31 86
e 31 89
e 31 95
e 31 98
e 31 99
e 31 105
e 31 106
e 31 108
e 31 111
e 31 116
e 31 120
e 31 121
e 31 122
e 31 123
e 31 126
e 31 128
e 31 129
e 31 131
e 31 136
e 31 137
e 31 144
e 31 145
e 31 156
e 31 161
e 31 171
e 31 179
e 31 188
e 31 194
e 32 33
e 32 37
e 32 39
e 32 41
e 32 42
e 32 47
e 32 50
e 32 54
e 32 64
e 32 66
e 32 69
e 32 76
e 32 77
e 32 81
e 32 91
e 32 95
e 32 102
e 32 105
e 32 110
e 32 118
e 32 125
e 32 129
e 32 134
e 32 157
e 32 163
e 32 166
e 32 170
e 32 177
e 32 193
e 33 37
e 33 40
e 33 43
e 33 47
e 33 48
e 33 51
e 33 58
e 33 65
e 33 68
e 33 69
e 33 70
e 33 71
e 33 74
e 33 79
e 33 87
e 33 89
e 33 94
e 33 96
e 33 98
e 33 99
e 33 100
e 33 103
e 33 104
e 33 107
e 33 118
e 33 121
e 33 123
e 33 134
e 33 140
e 33 141
e 33 142
e 33 146
e 33 149
e 33 151
e 33 153
e 33 155
e 33 160
e 33 162
e 33 168
e 33 171
e 33 174
e 33 180
e 33 191
e 34 35
e 34 36
e 34 38
e 34 39
e 34 40
e 34 41
e 34 42
e 34 44
e 34 45
e 34 48
e 34 54
e 34 55
e 34 60
e 34 67
e 34 69
e 34 71
e 34 72
e 34 74
e 34 82
e 34 85
e 34 87
e 34 90
e 34 92
e 34 93
e 34 100
e 34 105
e 34 109
e 34 112
e 34 114
e 34 119
e 34 127
e 34 129
e 34 132
e 34 135
e 34 141
e 34 143
e 34 177
e 34 178
e 34 181
e 34 187
e 35 38
e 35 39
e 35 40
e 35 41
e 35 42
e 35 48
e 35 51
e 35 57
e 35 59
e 35 60
e 35 76
e 35 81
e 35 85
e 35 89
e 35 94
e 35 115
e 35 130
e 35 139
e 35 149
e 35 155
e 35 156
e 35 164
e 35 186
e 35 187
e 35 194
e 36 43
e 36 44
e 36 45
e 36 46
e 36 52
e 36 53
e 36 58
e 36 59
e 36 63
e 36 66
e 36 72
e 36 73
e 36 74
e 36 75
e 36 80
e 36 82
e 36 87
e 36 89
e 36 90
e 36 92
e 36 97
e 36 101
e 36 102
e 36 111
e 36 115
e 36 117
e 36 120
e 36 121
e 36 123
e 36 125
e 36 127
e 36 132
e 36 134
e 36 135
e 36 137
e 36 138
e 36 153
e 36 154
e 36 167
e 36 187
e 36 188
e 36 192
e 37 38
e 37 39
e 37 40
e 37 47
e 37 48
e 37 50
e 37 53
e 37 54
e 37 61
e 37 62
e 37 63
e 37 66
e 37 67
e 37 75
e 37 76
e 37 84
e 37 86
e 37 110
e 37 111
e 37 117
e 37 119
e 37 121
e 37 133
e 37 138
e 37 141
e 37 162
e 37 183
e 37 184
e 37 185
e 37 189
e 37 192
e 38 44
e 38 50
e 38 52
e 38 61
e 38 65
e 38 70
e 38 71
e 38 73
e 38 76
e 38 80
e 38 94
e 38 98
e 38 100
e 38 110
e 38 140
e 38 144
e 38 146
e 38 150
e 38 155
e 38 170
e 38 186
e 38 193
e 39 40
e 39 42
e 39 45
e 39 49
e 39 52
e 39 55
e 39 61
e 39 88
e 39 93
e 39 99
e 39 102
e 39 119
e 39 134
e 39 156
e 39 187
e 39 188
e 40 43
e 40 45
e 40 46
e 40 55
e 40 66
e 40 67
e 40 71
e 40 77
e 40 78
e 40 84
e 40 85
e 40 98
e 40 100
e 40 101
e 40 103
e 40 116
e 40 120
e 40 123
e 40 130
e 40 136
e 40 140
e 40 142
e 40 143
e 40 147
e 40 156
e 40 159
e 40 162
e 40 169
e 40 170
e 40 175
e 40 191
e 41 43
e 41 44
e 41 46
e 41 47
e 41 49
e 41 51
e 41 52
e 41 54
e 41 57
e 41 62
e 41 64
e 41 66
e 41 67
e 41 83
e 41 85
e 41 94
e 41 96
e 41 99
e 41 112
e 41 118
e 41 125
e 41 131
e 41 134
e 41 140
e 41 141
e 41 151
e 41 169
e 41 172
e 41 184
e 41 187
e 41 193
e 41 194
e 41 195
e 42 43
e 42 44
e 42 49
e 42 51
e 42 54
e 42 55
e 42 59
e 42 62
e 42 63
e 42 64
e 42 70
e 42 72
e 42 81
e 42 83
e 42 86
e 42 90
e 42 94
e 42 95
e 42 102
e 42 107
e 42 117
e 42 122
e 42 123
e 42 131
e 42 133
e 42 142
e 42 145
e 42 153
e 42 165
e 42 174
e 42 175
e 42 185
e 42 186
e 42 188
e 43 44
e 43 46
e 43 59
e 43 64
e 43 68
e 43 83
e 43 86
e 43 91
e 43 97
e 43 102
e 43 106
e 43 108
e 43 120
e 43 123
e 43 126
e 43 134
e 43 155
e 43 163
e 43 165
e 44 45
e 44 47
e 44 54
e 44 57
e 44 58
e 44 59
e 44 60
e 44 61
e 44 65
e 44 66
e 44 69
e 44 77
e 44 79
e 44 82
e 44 83
e 44 87
e 44 90
e 44 91
e 44 96
e 44 100
e 44 107
e 44 113
e 44 128
e 44 130
e 44 133
e 44 154
e 44 160
e 44 172
e 44 187
e 44 195
e 45 51
e 45 54
e 45 60
e 45 64
e 45 65
e 45 79
e 45 85
e 45 130
e 45 132
e 45 136
e 45 178
e 45 182
e 46 48
e 46 52
e 46 73
e 46 76
e 46 77
e 46 83
e 46 88
e 46 97
e 46 102
e 46 103
e 46 112
e 46 117
e 46 124
e 46 133
e 46 138
e 46 148
e 46 153
e 46 155
e 47 51
e 47 55
e 47 56
e 47 57
e 47 61
e 47 71
e 47 73
e 47 75
e 47 76
e 47 89
e 47 94
e 47 98
e 47 104
e 47 106
e 47 109
e 47 114
e 47 119
e 47 132
e 47 143
e 47 154
e 47 155
e 47 168
e 47 174
e 47 176
e 47 189
e 48 49
e 48 55
e 48 56
e 48 59
e 48 61
e 48 69
e 48 71
e 48 88
e 48 100
e 48 105
e 48 109
e 48 119
e 48 121
e 48 131
e 48 136
e 48 140
e 48 141
e 48 144
e 48 165
e 48 166
e 48 172
e 48 173
e 48 184
e 48 193
e 49 55
e 49 57
e 49 58
e 49 63
e 49 64
e 49 67
e 49 68
e 49 71
e 49 76
e 49 88
e 49 107
e 49 108
e 49 113
e 49 114
e 49 119
e 49 130
e 49 134
e 49 145
e 49 159
e 49 163
e 49 175
e 49 177
e 49 192
e 50 57
e 50 69
e 50 81
e 50 94
e 50 97
e 50 140
e 50 151
e 50 153
e 50 171
e 50 178
e 50 181
e 50 189
e 50 193
e 50 195
e 51 68
e 51 73
e 51 74
e 51 75
e 51 84
e 51 85
e 51 103
e 51 110
e 51 113
e 51 116
e 51 126
e 51 135
e 51 150
e 51 152
e 51 167
e 51 180
e 51 185
e 51 193
e 52 55
e 52 59
e 52 67
e 52 72
e 52 78
e 52 96
e 52 114
e 52 125
e 52 130
e 52 145
e 52 152
e 52 172
e 52 195
e 53 56
e 53 58
e 53 61
e 53 68
e 53 70
e 53 71
e 53 77
e 53 80
e 53 87
e 53 98
e 53 115
e 53 152
e 53 154
e 53 155
e 53 176
e 53 189
e 54 63
e 54 70
e 54 73
e 54 121
e 54 135
e 54 138
e 54 151
e 54 177
e 54 183
e 55 78
e 55 82
e 55 90
e 55 96
e 55 99
e 55 100
e 55 107
e 55 110
e 55 114
e 55 115
e 55 125
e 55 130
e 55 144
e 55 152
e 55 178
e 55 183
e 56 57
e 56 74
e 56 84
e 56 95
e 56 97
e 56 98
e 56 102
e 56 106
e 56 167
e 56 170
e 56 184
e 56 185
e 56 191
e 57 62
e 57 70
e 57 75
e 57 93
e 57 95
e 57 97
e 57 102
e 57 116
e 57 147
e 57 160
e 57 180
e 57 183
e 57 188
e 58 60
e 58 62
e 58 68
e 58 83
e 58 95
e 58 96
e 58 101
e 58 103
e 58 112
e 58 113
e 58 135
e 58 139
e 58 144
e 58 160
e 58 164
e 58 182
e 59 65
e 59 88
e 59 94
e 59 112
e 59 164
e 59 167
e 59 168
e 60 62
e 60 68
e 60 71
e 60 83
e 60 84
e 60 87
e 60 90
e 60 91
e 60 102
e 60 105
e 60 112
e 60 113
e 60 127
e 60 133
e 60 142
e 60 145
e 60 146
e 60 150
e 60 161
e 60 168
e 60 187
e 60 189
e 61 73
e 61 75
e 61 77
e 61 78
e 61 79
e 61 84
e 61 94
e 61 95
e 61 113
e 61 115
e 61 126
e 61 132
e 61 140
e 61 143
e 61 149
e 61 167
e 61 169
e 61 190
e 62 66
e 62 70
e 62 72
e 62 79
e 62 80
e 62 115
e 62 146
e 62 149
e 62 177
e 63 67
e 63 68
e 63 75
e 63 80
e 63 82
e 63 84
e 63 86
e 63 87
e 63 107
e 63 112
e 63 118
e 63 137
e 63 138
e 63 145
e 63 148
e 63 158
e 63 162
e 63 163
e 63 174
e 63 181
e 63 184
e 63 195
e 64 65
e 64 66
e 64 67
e 64 72
e 64 74
e 64 77
e 64 85
e 64 87
e 64 89
e 64 90
e 64 94
e 64 106
e 64 124
e 64 135
e 64 139
e 64 159
e 64 170
e 64 175
e 64 179
e 64 195
e 65 70
e 65 79
e 65 83
e 65 86
e 65 88
e 65 97
e 65 100
e 65 103
e 65 113
e 65 118
e 65 169
e 66 74
e 66 80
e 66 86
e 66 91
e 66 104
e 66 112
e 66 114
e 66 130
e 66 148
e 66 156
e 66 174
e 66 178
e 66 179
e 66 180
e 66 181
e 66 185
e 67 74
e 67 77
e 67 81
e 67 83
e 67 87
e 67 92
e 67 96
e 67 98
e 67 99
e 67 103
e 67 111
e 67 122
e 67 124
e 67 135
e 67 141
e 67 146
e 67 149
e 67 154
e 67 159
e 67 187
e 68 78
e 68 80
e 68 89
e 68 92
e 68 95
e 68 98
e 68 100
e 68 101
e 68 104
e 68 105
e 68 122
e 68 124
e 68 126
e 68 138
e 68 142
e 68 148
e 68 164
e 68 166
e 68 191
e 69 77
e 69 98
e 69 105
e 69 108
e 69 111
e 69 113
e 69 124
e 69 127
e 69 131
e 69 137
e 69 149
e 69 150
e 69 157
e 69 159
e 69 170
e 69 184
e 69 187
e 70 76
e 70 78
e 70 89
e 70 91
e 70 94
e 70 115
e 70 120
e 70 122
e 70 134
e 70 137
e 70 138
e 70 143
e 70 162
e 70 173
e 70 174
e 70 184
e 70 190
e 71 72
e 71 73
e 71 85
e 71 89
e 71 91
e 71 98
e 71 104
e 71 109
e 71 111
e 71 122
e 71 126
e 71 137
e 71 157
e 71 167
e 71 173
e 71 181
e 71 186
e 71 188
e 71 190
e 71 192
e 72 84
e 72 92
e 72 101
e 72 109
e 72 110
e 72 127
e 72 147
e 72 156
e 72 166
e 72 179
e 72 182
e 72 184
e 72 192
e 73 75
e 73 77
e 73 80
e 73 90
e 73 93
e 73 95
e 73 99
e 73 113
e 73 120
e 73 121
e 73 122
e 73 124
e 73 131
e 73 136
e 73 144
e 73 147
e 73 149
e 73 153
e 73 158
e 73 159
e 73 164
e 74 84
e 74 93
e 74 99
e 74 116
e 74 118
e 74 127
e 74 132
e 74 136
e 74 162
e 74 163
e 74 173
e 74 183
e 74 189
e 75 103
e 75 104
e 75 116
e 75 119
e 75 130
e 75 133
e 75 139
e 75 158
e 75 166
e 75 174
e 76 82
e 76 98
e 76 101
e 76 114
e 76 120
e 76 126
e 76 127
e 76 143
e 76 149
e 76 160
e 76 164
e 76 178
e 76 185
e 76 194
e 77 80
e 77 81
e 77 82
e 77 97
e 77 99
e 77 119
e 77 120
e 77 130
e 77 145
e 77 158
e 77 160
e 77 161
e 77 193
e 77 195
e 78 108
e 78 114
e 78 122
e 78 123
e 78 126
e 78 139
e 78 161
e 78 169
e 78 173
e 78 182
e 78 191
e 79 95
e 79 97
e 79 99
e 79 128
e 79 168
e 79 179
e 79 190
e 80 92
e 80 99
e 80 103
e 80 123
e 80 141
e 80 164
e 80 165
e 80 176
e 80 180
e 80 187
e 81 87
e 81 93
e 81 109
e 81 116
e 81 126
e 81 133
e 81 141
e 81 150
e 81 152
e 81 157
e 81 159
e 81 181
e 82 143
e 83 84
e 83 85
e 83 93
e 83 103
e 83 107
e 83 108
e 83 111
e 83 136
e 83 138
e 83 139
e 83 148
e 83 151
e 83 153
e 83 157
e 83 161
e 83 162
e 83 164
e 83 168
e 83 172
e 83 176
e 83 185
e 83 188
e 84 119
e 84 121
e 84 144
e 84 165
e 85 87
e 85 97
e 85 100
e 85 102
e 85 105
e 85 117
e 85 164
e 85 175
e 86 117
e 86 136
e 86 141
e 86 148
e 86 151
e 86 154
e 86 157
e 86 161
e 86 163
e 86 166
e 86 171
e 86 190
e 86 194
e 87 107
e 87 109
e 87 121
e 87 177
e 87 184
e 88 91
e 88 99
e 88 111
e 88 112
e 88 124
e 88 131
e 88 134
e 88 138
e 88 153
e 88 156
e 88 157
e 88 158
e 88 178
e 89 93
e 89 104
e 89 125
e 89 152
e 89 177
e 90 118
e 90 129
e 90 137
e 90 154
e 90 155
e 90 174
e 90 191
e 90 193
e 91 101
e 91 103
e 91 109
e 91 143
e 91 152
e 91 161
e 91 166
e 91 169
e 92 114
e 92 156
e 92 169
e 92 177
e 93 97
e 93 100
e 93 110
e 93 120
e 93 139
e 93 168
e 93 173
e 93 194
e 93 195
e 94 97
e 94 105
e 94 108
e 94 124
e 94 136
e 94 148
e 94 150
e 94 157
e 94 158
e 94 166
e 95 160
e 95 170
e 95 172
e 95 180
e 95 184
e 95 194
e 96 116
e 96 141
e 96 142
e 96 156
e 96 165
e 96 191
e 96 195
e 97 133
e 97 152
e 97 156
e 97 165
e 97 166
e 98 101
e 98 111
e 98 117
e 98 123
e 98 125
e 98 127
e 98 128
e 98 130
e 98 131
e 98 160
e 98 180
e 99 106
e 99 108
e 99 116
e 99 117
e 99 121
e 99 135
e 99 144
e 99 173
e 100 117
e 100 127
e 100 133
e 100 138
e 100 155
e 100 173
e 101 129
e 101 139
e 101 146
e 101 170
e 101 181
e 101 183
e 102 106
e 102 111
e 102 119
e 102 128
e 102 135
e 102 148
e 102 154
e 102 178
e 102 181
e 102 187
e 103 105
e 103 106
e 103 132
e 103 133
e 103 134
e 103 135
e 103 161
e 103 165
e 103 189
e 104 108
e 104 109
e 104 110
e 104 115
e 104 118
e 104 121
e 104 123
e 104 136
e 104 142
e 104 148
e 104 158
e 104 179
e 104 182
e 105 147
e 105 148
e 105 173
e 105 175
e 105 180
e 106 122
e 106 131
e 106 142
e 106 143
e 106 161
e 106 176
e 107 151
e 107 160
e 107 188
e 107 194
e 108 109
e 108 111
e 108 128
e 108 139
e 108 146
e 108 150
e 108 164
e 108 183
e 108 194
e 109 116
e 109 118
e 109 120
e 109 139
e 109 145
e 109 147
e 109 152
e 109 161
e 109 162
e 109 176
e 109 185
e 110 112
e 110 122
e 110 123
e 110 131
e 110 158
e 110 169
e 110 182
e 111 121
e 111 122
e 111 144
e 111 157
e 111 163
e 111 168
e 111 175
e 112 132
e 112 140
e 112 168
e 112 183
e 112 192
e 113 115
e 113 153
e 113 158
e 113 181
e 113 183
e 113 185
e 114 116
e 114 137
e 114 157
e 114 163
e 114 192
e 115 127
e 115 133
e 115 166
e 116 146
e 116 163
e 116 177
e 116 180
e 116 191
e 116 193
e 117 122
e 117 125
e 117 142
e 117 147
e 117 153
e 117 158
e 117 194
e 118 124
e 118 126
e 118 127
e 118 128
e 118 137
e 118 138
e 118 144
e 118 150
e 118 167
e 118 174
e 118 176
e 118 190
e 118 194
e 119 135
e 119 146
e 119 188
e 119 189
e 120 142
e 120 147
e 120 151
e 120 172
e 120 194
e 121 128
e 121 129
e 121 133
e 121 134
e 121 135
e 121 148
e 121 151
e 121 170
e 121 171
e 121 176
e 121 186
e 121 191
e 122 132
e 122 145
e 122 161
e 122 180
e 123 126
e 123 145
e 123 148
e 123 162
e 123 178
e 123 179
e 124 147
e 124 162
e 124 176
e 124 191
e 125 132
e 125 171
e 126 143
e 126 147
e 126 148
e 126 163
e 126 164
e 126 174
e 126 176
e 126 186
e 126 191
e 126 194
e 127 130
e 127 131
e 127 136
e 127 157
e 127 166
e 127 167
e 127 180
e 127 182
e 127 183
e 127 194
e 128 137
e 128 140
e 128 144
e 128 150
e 128 155
e 128 182
e 128 186
e 129 132
e 129 161
e 129 162
e 129 169
e 129 177
e 129 180
e 129 193
e 130 133
e 130 195
e 131 132
e 131 136
e 131 142
e 131 145
e 131 151
e 131 163
e 131 172
e 131 185
e 132 150
e 132 175
e 133 145
e 133 146
e 134 159
e 134 162
e 134 175
e 134 188
e 135 153
e 135 161
e 135 168
e 136 137
e 136 153
e 136 154
e 138 141
e 138 172
e 138 186
e 138 193
e 139 182
e 139 189
e 140 143
e 140 154
e 140 156
e 140 178
e 141 156
e 141 160
e 141 174
e 141 191
e 142 159
e 142 169
e 142 171
e 142 172
e 142 192
e 143 177
e 143 193
e 144 145
e 144 155
e 145 178
e 145 180
e 145 192
e 146 149
e 146 150
e 146 159
e 146 168
e 146 182
e 147 153
e 148 168
e 148 170
e 148 174
e 149 161
e 149 165
e 149 177
e 150 152
e 150 163
e 150 171
e 151 155
e 151 158
e 151 161
e 151 190
e 152 176
e 152 177
e 153 157
e 153 179
e 153 184
e 154 157
e 154 159
e 154 178
e 155 166
e 155 172
e 155 173
e 156 171
e 157 169
e 157 190
e 161 186
e 161 190
e 162 182
e 163 178
e 165 170
e 165 175
e 165 191
e 167 178
e 168 170
e 169 186
e 169 187
e 171 189
e 172 190
e 173 176
e 173 195
e 174 178
e 174 188
e 175 179
e 176 182
e 176 186
e 177 193
e 179 180
e 180 189
e 180 190
e 182 185
e 183 190
e 183 192
e 184 186
e 185 189
e 189 194
